Bruniera/ragionamento automatico/progetto/benchmark/asp/mid25.lp
start(0).
limit(6).
n(14).
strada(0,2,0).
strada(0,3,13).
strada(0,6,9).
strada(0,7,7).
strada(0,11,3).
strada(0,13,20).
strada(1,0,18).
strada(1,7,20).
strada(1,8,9).
strada(1,9,6).
strada(1,12,10).
strada(1,13,2).
strada(2,1,6).
strada(2,3,8).
strada(2,5,8).
strada(2,7,0).
strada(2,9,9).
strada(2,11,10).
strada(3,2,18).
strada(3,4,17).
strada(3,5,5).
strada(3,6,17).
strada(3,9,6).
strada(3,13,5).
strada(4,3,12).
strada(4,6,15).
strada(4,8,11).
strada(4,9,7).
strada(4,12,14).
strada(5,2,5).
strada(5,3,18).
strada(5,6,13).
strada(5,8,18).
strada(5,12,8).
strada(6,0,2).
strada(6,4,14).
strada(6,5,4).
strada(6,9,9).
strada(6,11,20).
strada(6,12,1).
strada(6,13,19).
strada(7,1,11).
strada(7,3,2).
strada(7,4,15).
strada(7,5,1).
strada(7,9,17).
strada(7,12,15).
strada(7,13,19).
strada(8,2,8).
strada(8,5,17).
strada(8,9,0).
strada(8,11,12).
strada(9,6,2).
strada(9,7,17).
strada(9,8,19).
strada(10,1,0).
strada(10,5,10).
strada(10,8,4).
strada(10,13,15).
strada(11,0,11).
strada(11,1,20).
strada(11,7,19).
strada(11,8,0).
strada(11,10,1).
strada(12,3,2).
strada(12,4,18).
strada(12,6,1).
strada(12,9,16).
strada(12,10,8).
strada(13,2,1).
strada(13,5,12).
strada(13,6,1).
strada(13,9,5).
strada(13,10,9).
strada(13,12,3).
