Bruniera/ragionamento automatico/progetto/benchmark/minizinc/mid25.dzn
start = 1;
limit = 6;
n = 14;
m=[|-1,-1,0,13,-1,-1,9,7,-1,-1,-1,3,-1,20,
|18,-1,-1,-1,-1,-1,-1,20,9,6,-1,-1,10,2,
|-1,6,-1,8,-1,8,-1,0,-1,9,-1,10,-1,-1,
|-1,-1,18,-1,17,5,17,-1,-1,6,-1,-1,-1,5,
|-1,-1,-1,12,-1,-1,15,-1,11,7,-1,-1,14,-1,
|-1,-1,5,18,-1,-1,13,-1,18,-1,-1,-1,8,-1,
|2,-1,-1,-1,14,4,-1,-1,-1,9,-1,20,1,19,
|-1,11,-1,2,15,1,-1,-1,-1,17,-1,-1,15,19,
|-1,-1,8,-1,-1,17,-1,-1,-1,0,-1,12,-1,-1,
|-1,-1,-1,-1,-1,-1,2,17,19,-1,-1,-1,-1,-1,
|-1,0,-1,-1,-1,10,-1,-1,4,-1,-1,-1,-1,15,
|11,20,-1,-1,-1,-1,-1,19,0,-1,1,-1,-1,-1,
|-1,-1,-1,2,18,-1,1,-1,-1,16,8,-1,-1,-1,
|-1,-1,1,-1,-1,12,1,-1,-1,5,9,-1,3,-1,
|]
;